NAME : S-G-200-10.1757.tour
COMMENT : Length = 1757
COMMENT : Found by LKH [Keld Helsgaun] Thu May 17 23:18:21 2018
TYPE : TOUR
DIMENSION : 31
TOUR_SECTION
1
29
26
21
23
18
12
15
4
30
25
31
24
28
27
20
5
3
9
13
10
16
19
17
11
6
8
7
14
2
22
-1
EOF
